64

 0   5  17  42   8  43  41  86   5  47  41  82  46  87  86  81   2  48  43  82  42  82  88  86  48  85  89  90  85  84  85  84  14  50  48  86  50  86  88  83  49  87  85  85  82  89  81  88  41  81  82  90  88  86  88  86  90  89  89  82  87  81  89  87  
 5   0  47   1  49   1  89  42  48   8  86  50  87  41  83  81  41  11  90  49  85  41  85  84  87  46  82  87  84  89  88  88  46  11  81  44  87  43  82  87  86  41  87  84  90  88  86  85  89  42  88  83  83  83  84  89  89  86  82  86  86  81  86  83  
10  43   0  18  42  87   5  47  43  85  20  41  88  90  42  87  47  84  13  47  83  87  43  90  88  85  45  88  84  90  85  87  44  84  11  42  86  85  48  90  85  90  46  83  86  81  88  81  86  83  45  89  89  90  86  83  81  86  83  85  81  87  83  90  
49   9   5   0  86  47  48   8  87  42  43  13  87  86  84  50  83  41  42   1  88  87  81  42  88  85  84  48  89  85  84  83  84  46  50   8  90  84  86  43  88  88  81  50  88  86  81  87  82  82  85  43  89  88  85  90  88  86  83  86  82  90  88  85  
11  43  41  89   0  17  15  41  47  86  81  90  19  48  48  86  41  88  83  85   6  41  47  84  85  83  88  88  41  89  85  81  44  90  86  87  15  44  43  90  89  82  89  87  50  85  85  89  89  85  84  84  45  82  81  89  81  82  87  84  89  88  81  88  
47  19  90  44  10   0  42   2  86  42  84  84  46  14  81  48  88  43  90  82  42   3  90  42  82  84  89  90  89  41  87  83  86  50  85  90  48   2  82  49  84  88  89  86  85  47  83  87  90  89  88  87  86  47  84  87  81  83  84  89  83  83  89  85  
50  86  11  47   7  50   0   9  90  88  50  85  42  86  13  47  88  89  42  86  42  89   7  48  90  90  81  89  87  86  43  83  90  90  50  87  42  82  19  43  83  89  85  88  82  81  42  83  86  83  90  81  88  88  48  85  86  85  82  86  83  83  87  87  
85  42  47  10  50   7   5   0  81  81  82  43  84  49  42  12  87  84  82  49  88  48  43  19  87  83  82  87  82  82  90  43  81  84  87  47  81  44  50  17  83  84  87  81  85  81  86  44  90  87  86  88  88  90  84  42  89  83  82  85  82  81  81  86  
 6  46  47  82  41  90  87  88   0  12  10  44   2  44  48  82  46  89  85  84  88  82  89  87   8  41  50  81  49  82  90  89  42  89  89  85  81  82  90  85  19  41  44  89  41  90  86  90  86  88  90  88  86  88  88  84  46  88  86  87  87  88  87  86  
47  17  87  41  84  46  84  86   5   0  42  16  42  10  83  41  90  41  85  87  85  89  87  90  46   4  84  43  82  49  82  82  83  46  89  84  84  88  86  81  44   2  84  48  87  42  81  82  86  83  89  87  81  85  82  82  82  44  85  89  90  88  81  90  
46  89  18  48  82  85  47  85  10  47   0   1  41  81  17  47  85  90  41  82  85  83  87  84  45  82  17  50  81  85  46  84  89  82  50  86  87  82  87  90  49  86  11  45  88  90  49  84  89  88  83  89  83  88  85  84  82  83  49  83  82  90  87  81  
85  41  44  13  89  88  86  47  50   4   7   0  82  41  46  10  89  82  81  44  83  83  81  90  83  44  41   9  88  82  86  49  83  82  84  42  84  86  81  87  86  41  48  14  86  89  81  44  85  89  87  84  84  87  81  87  87  87  90  46  84  87  88  84  
50  81  81  83   7  48  49  88  11  50  43  86   0  12  14  47  84  84  82  86  46  89  83  82  47  84  88  82  10  44  42  84  81  84  83  84  43  85  90  84  45  84  84  86  10  46  42  90  88  89  85  86  85  88  83  82  89  83  89  85  45  89  84  88  
89  46  84  89  49   6  81  45  48   8  88  47   1   0  41  12  90  82  87  84  89  46  90  87  82  41  82  90  50  18  88  46  81  89  85  85  90  43  82  81  83  49  81  89  44   4  84  42  83  84  87  87  84  81  86  86  88  90  81  82  90  41  84  83  
82  84  43  81  42  85  11  44  46  84  17  49   6  41   0   8  85  84  87  84  83  88  45  88  85  82  46  85  47  83  15  49  81  88  87  89  83  89  48  89  81  87  49  83  43  86  17  48  82  89  87  81  90  86  86  84  88  84  83  82  81  82  49  84  
88  90  86  45  83  44  50   6  82  46  48   7  41  18  14   0  82  87  82  90  90  86  83  45  81  84  86  49  83  48  41  16  88  84  86  84  84  88  89  47  87  86  84  43  86  48  43  15  85  90  84  90  86  88  83  90  90  82  81  83  86  85  83  50  
 7  46  41  85  47  81  86  85  41  88  86  81  84  87  82  81   0  12  13  46   7  49  44  89   1  49  44  84  43  83  89  83  45  87  90  90  86  81  90  84  81  83  81  87  85  89  83  87  20  49  46  87  45  87  84  83  46  85  90  81  83  82  89  84  
46  18  89  45  81  49  83  81  89  41  82  81  86  89  84  87   5   0  41  13  46  20  85  50  50   4  89  47  83  47  81  88  86  48  86  89  84  81  82  90  89  89  83  83  84  85  86  84  50   7  86  42  87  47  84  81  88  44  85  82  90  84  81  90  
47  85  15  41  83  88  43  89  82  83  50  85  90  90  83  90  17  47   0  14  43  82  20  48  43  86   2  45  83  83  50  83  88  87  44  82  85  90  87  88  82  84  81  83  89  90  84  81  47  83  10  49  81  90  45  85  87  84  44  88  88  88  86  87  
82  50  41   6  89  88  82  50  89  82  85  43  87  83  87  88  41  12   5   0  81  42  50   1  84  47  43   7  83  86  85  46  90  81  85  42  83  82  85  84  88  88  87  83  81  89  87  81  84  48  46   1  84  85  86  46  87  86  88  50  90  84  83  83  
48  84  89  89   5  43  42  90  89  86  85  82  41  90  83  89  18  46  47  90   0   8  17  47  43  81  82  86   9  43  48  86  90  85  84  88  50  83  85  89  88  81  81  86  86  83  84  87  42  85  81  81   5  47  46  86  81  87  87  86  49  88  89  88  
82  50  88  84  49  17  83  48  86  84  82  82  81  45  90  86  41  13  87  46  11   0  41   3  89  45  87  86  44  13  81  41  89  84  82  88  89  43  85  82  81  85  83  88  81  89  89  88  88  48  89  87  41  11  86  46  84  88  84  86  84  50  86  86  
81  85  42  81  42  84   4  47  82  89  88  85  85  90  44  85  49  82   8  41  18  41   0  11  86  86  45  86  42  85   5  42  87  87  81  90  83  83  48  81  81  88  81  83  83  83  84  81  83  90  42  83  43  87  19  49  82  81  81  84  88  90  45  88  
86  86  81  47  81  49  41   4  83  81  82  84  82  81  82  41  89  42  49   5  43  17   5   0  83  88  84  48  89  42  49  18  88  85  85  87  88  90  83  44  88  87  81  83  86  90  88  90  84  86  83  43  88  46  41  19  83  83  89  81  82  85  81  47  
41  86  84  90  87  83  84  84  17  44  46  86  46  84  86  86  14  50  48  88  47  85  85  85   0   9  13  49  14  47  47  81  85  84  83  90  89  82  82  81  50  82  86  87  88  89  86  87  42  82  85  88  88  84  81  85  10  41  47  84  44  87  84  89  
88  41  89  86  81  88  85  85  42  17  88  44  83  48  87  84  50  20  87  45  82  50  85  87   1   0  47  15  45  16  84  46  86  88  87  88  88  81  88  87  89  42  90  89  87  88  83  87  87  41  90  90  85  87  84  88  44   5  84  41  86  43  82  87  
90  90  44  90  85  86  83  90  50  83  16  41  86  88  46  85  43  84   5  46  90  82  42  86  10  50   0  14  41  82  16  49  83  88  89  82  85  87  87  82  88  90  47  82  84  85  88  90  85  86  46  88  88  83  82  86  46  89  12  43  86  83  42  81  
87  86  86  42  85  83  85  88  81  47  48  20  81  90  90  43  90  46  43   5  85  90  82  42  41  14   3   0  83  43  43  12  82  84  85  81  86  84  86  87  81  89  81  42  90  86  84  90  85  83  89  46  81  89  81  89  81  46  44   6  86  85  90  41  
84  83  82  83  42  84  87  83  45  84  89  89   2  45  50  81  50  89  83  81  20  46  43  86  11  43  46  89   0  20  18  41  83  90  85  83  86  90  85  85  81  90  89  85  41  86  85  88  87  82  85  81  42  88  82  85  44  84  85  90  15  50  42  81  
88  82  84  83  85  49  83  82  89  47  83  87  41  15  90  48  90  48  83  81  46  20  87  43  47  19  86  44   9   0  48   5  82  82  88  87  81  87  81  89  86  89  82  86  84  44  83  85  88  85  90  85  85  45  85  87  85  46  87  88  45  16  86  50  
87  86  88  85  81  89  49  90  87  83  43  82  41  88   5  48  84  89  49  87  49  87   2  48  48  83   9  50   8  41   0  16  82  90  86  88  90  90  84  87  87  83  84  83  85  83  49  81  84  85  85  83  89  90  49  85  90  82  47  85  42  84   7  47  
85  84  90  90  90  86  85  41  81  86  82  50  84  49  41  18  90  82  86  43  82  43  49  18  82  43  49  11  42  17   7   0  89  86  85  81  82  89  89  85  85  81  81  82  84  90  86  41  83  88  83  90  84  90  90  50  87  83  82  42  88  45  43  14  
 9  47  49  89  49  84  83  81  49  89  82  90  89  81  88  89  44  87  82  81  83  82  89  84  87  87  83  89  89  83  85  89   0   1   2  44  19  46  42  81  11  49  42  90  44  82  84  90   3  48  45  83  43  90  84  83  45  89  81  84  90  83  87  85  
46   7  81  47  90  47  86  85  83  47  88  83  87  86  86  81  90  41  81  81  90  86  87  81  86  86  89  86  88  90  90  84  11   0  49  15  48  19  87  45  44  18  84  44  83  41  90  84  50   5  85  43  85  43  84  84  87  43  81  84  83  85  82  88  
42  84   7  49  86  81  49  87  82  83  46  88  89  83  90  84  81  87  49  85  89  83  84  89  86  88  88  81  87  87  83  83   5  49   0   2  42  88   5  41  42  85  15  45  84  85  41  81  44  88  13  46  88  86  46  90  82  88  47  82  88  84  87  84  
82  47  48  12  86  82  86  50  86  86  82  43  90  82  82  83  88  83  85  43  85  84  83  81  90  86  83  85  83  86  85  86  43  16   1   0  87  49  50  16  87  46  43   2  86  90  84  43  83  41  49   4  88  88  83  47  88  84  83  43  83  88  89  88  
42  84  81  81  10  41  49  87  89  82  85  85  43  82  86  86  88  88  86  84  44  90  87  84  89  88  90  87  84  86  89  81  12  49  42  84   0   5  11  49  41  90  84  86   6  42  41  82  43  82  88  89  11  50  41  81  86  88  89  89  43  87  82  87  
83  50  85  86  48   6  82  49  84  89  86  82  84  41  82  87  81  82  83  86  86  45  84  84  90  89  88  82  81  82  85  82  48  15  81  41   1   0  45   3  88  47  89  85  50   8  85  44  83  44  89  84  45  20  81  43  90  85  86  83  86  45  87  87  
86  88  42  81  50  89  15  49  89  89  87  85  90  88  47  90  85  85  85  81  90  88  50  86  89  87  82  86  90  90  85  90  46  84  20  45   6  44   0  20  82  84  48  88  47  86   2  46  84  88  48  81  46  84   9  42  83  85  83  82  90  87  48  85  
90  87  85  42  87  45  42  14  86  89  83  86  86  81  87  41  86  88  84  89  89  82  81  43  83  85  88  90  84  84  90  85  85  42  41  10  42  16   6   0  82  84  89  41  87  42  41  16  86  88  82  44  86  47  43  16  90  84  89  81  89  88  85  47  
47  89  88  89  85  81  85  83  13  49  48  87  48  85  82  89  84  88  87  81  83  83  89  86  44  87  82  86  86  85  83  87  20  50  47  86  45  86  84  82   0  20  16  46  19  42  44  85  43  89  85  88  89  83  89  90   4  47  47  83  50  87  87  85  
89  50  90  85  88  84  89  87  46  15  84  49  81  42  84  81  88  85  85  85  87  82  87  87  90  41  90  81  82  86  82  83  49  15  84  41  90  47  85  89  19   0  43  12  50   6  84  50  86  47  89  89  84  85  85  85  49   7  85  46  84  50  87  82  
83  81  47  90  87  86  86  88  42  81  13  49  82  87  49  86  85  83  87  87  87  82  81  82  85  86  42  85  88  85  89  85  50  81  19  47  84  83  45  81  19  45   0   9  41  86  12  43  90  81  48  89  86  86  85  81  47  84  20  43  87  82  44  86  
84  82  88  49  83  88  85  86  84  44  46  11  90  90  89  43  90  81  85  84  86  90  86  83  87  86  88  47  86  85  89  88  86  42  42   9  85  89  90  47  48   4  14   0  88  48  48  14  82  88  84  43  88  85  88  90  89  44  50  19  85  88  85  46  
87  86  81  83  47  82  89  85  50  87  87  89  19  46  49  85  90  81  81  89  89  85  84  83  83  90  87  81  48  83  82  87  45  83  90  85  10  48  45  82  17  42  45  86   0  11  13  50  81  90  82  84  50  85  82  90  50  84  87  82   9  46  43  90  
85  85  81  83  89  47  84  82  84  44  90  89  43   2  85  42  89  82  83  88  88  87  82  87  86  81  90  89  82  45  87  84  83  48  90  86  48   3  84  43  48  17  85  47   9   0  43   6  90  89  84  90  88  49  82  83  85  50  87  83  45   4  86  46  
88  82  88  82  83  81  48  85  85  89  41  87  43  84  10  49  85  84  88  86  82  88  85  88  82  87  81  88  81  83  48  89  88  89  49  84  45  87   3  42  49  84  17  41  20  42   0  15  90  89  84  88  85  84  43  82  82  86  41  81  49  87   8  48  
81  86  86  81  90  81  87  45  84  83  83  43  83  44  48   5  86  87  83  90  81  85  81  86  84  82  83  86  81  83  89  48  88  84  88  43  83  44  42   6  81  45  49   8  50  14  12   0  82  85  90  87  89  90  85  48  86  87  81  44  85  44  41   9  
49  85  89  84  86  85  88  88  87  90  90  85  90  89  81  85  20  49  43  83  42  84  83  85  45  88  86  87  82  85  85  83   7  47  46  89  43  84  85  88  47  82  81  87  87  87  85  90   0  13   1  41   2  48  46  85  17  49  45  90  46  90  84  89  
86  50  84  85  89  85  90  87  84  88  82  83  82  84  87  81  43  14  83  42  83  43  88  82  85  46  89  89  88  89  82  82  43   6  82  49  86  50  85  88  81  41  90  81  84  85  83  89  10   0  43  17  41  18  85  48  46   1  89  45  88  41  90  88  
90  84  46  81  85  82  84  84  86  88  89  81  86  81  81  84  47  86  19  50  89  85  41  81  86  87  49  84  89  85  88  89  45  86   5  50  85  87  50  84  84  88  42  86  84  85  85  82   8  49   0   1  47  90   6  47  41  88   1  47  83  85  50  89  
90  84  84  46  82  83  89  82  90  89  88  85  87  90  85  90  89  45  50   4  85  87  86  49  88  84  81  44  88  90  88  83  84  48  43  19  81  88  87  45  81  81  85  46  85  88  87  87  45   8   1   0  90  42  43   7  89  42  42   2  89  89  84  50  
83  85  88  82  49  88  85  87  81  83  82  81  86  90  83  85  43  84  87  88  20  41  50  88  82  90  83  90  44  83  87  90  47  90  89  85  12  49  44  87  87  86  83  86  46  83  90  84   5  43  49  89   0  13  19  46  46  88  82  84  10  42  48  86  
82  81  82  81  84  45  84  82  89  86  90  83  83  86  85  86  89  44  89  83  42  15  81  47  87  81  90  90  86  42  82  82  85  46  89  89  44  18  86  46  82  90  81  83  82  50  87  85  46  14  82  44   6   0  49   4  85  48  84  89  49  14  84  49  
89  83  90  81  82  82  41  86  89  83  83  85  81  87  89  90  90  89  49  85  43  84   4  44  86  88  87  81  87  81  43  90  89  83  45  82  48  89   7  43  83  90  84  85  83  87  49  86  43  83   6  47   2  44   0   6  85  81  48  83  50  90  12  50  
83  84  88  90  87  81  88  46  88  90  82  82  86  83  86  89  87  86  83  44  84  49  49  12  81  85  87  81  88  86  81  46  82  85  88  44  83  41  46   5  90  81  86  81  88  82  90  44  85  49  43  12  49   3  11   0  89  87  86  47  90  41  50   6  
86  82  87  87  83  85  88  89  42  85  90  85  81  87  89  87  42  84  85  86  82  88  86  90  20  50  42  85  43  89  86  82  43  89  83  89  83  88  82  81  12  44  50  81  49  84  90  83   1  49  47  85  44  90  81  84   0  15   5  46   8  48  41  87  
82  88  86  86  82  87  85  84  81  49  89  88  88  82  83  90  90  50  85  87  81  84  81  86  45  16  88  42  82  46  86  84  83  47  85  87  81  85  84  82  45   9  87  47  82  43  82  86  41   6  85  43  89  46  87  86  13   0  43   7  48  16  87  45  
81  82  88  85  88  90  83  82  84  83  43  86  84  83  86  87  83  85  42  84  87  85  82  81  46  84  12  50  86  82  43  88  81  87  42  86  83  87  84  85  41  84  11  45  86  90  41  81  49  87  17  46  88  84  49  82  12  48   0  15  48  88  10  44  
88  81  85  90  86  88  84  86  90  90  85  41  88  86  83  88  84  89  90  49  84  87  83  90  85  46  42  14  87  86  87  50  88  87  89  43  85  90  87  86  84  41  50   5  88  89  87  42  82  44  48   1  82  90  90  44  44  13  11   0  86  50  47  16  
83  82  89  81  82  83  86  85  90  90  87  89  49  81  83  84  83  83  84  83  48  88  83  81  44  84  85  82   8  48  44  90  90  89  86  82  42  85  81  90  49  87  84  83  13  43  44  83  49  90  86  85  18  47  42  82   3  50  45  87   0   8  16  47  
88  82  90  84  90  86  86  82  87  84  90  90  90  41  84  81  82  90  84  84  85  47  84  83  89  49  89  82  43   9  81  47  81  86  87  86  81  49  84  90  90  50  83  83  46  11  81  41  88  45  87  86  46  20  85  49  50  13  83  49   2   0  42  19  
85  88  83  90  87  85  90  84  86  82  86  86  86  84  42  86  88  84  85  89  89  89  50  83  81  82  42  87  41  89   5  50  83  90  84  88  81  87  43  89  89  81  47  88  45  82  16  42  84  89  49  85  44  84  16  50  50  84  16  45  14  48   0   4  
87  82  87  87  81  84  82  86  87  88  88  90  85  86  85  47  82  83  86  85  82  89  85  44  83  86  85  46  86  44  42   7  81  82  83  82  89  82  90  49  85  82  83  49  85  43  49  18  89  81  87  49  83  41  47   1  86  43  47   1  49   5  16   0  

 0  23  21   0  25   0   0   0  26   0   0   0   0   0   0   0  30   0   0   0   0   0   0   0   0   0   0   0   0   0   0   0  27   0   0   0   0   0   0   0   0   0   0   0   0   0   0   0   0   0   0   0   0   0   0   0   0   0   0   0   0   0   0   0  
24   0   0  21   0  27   0   0   0  21   0   0   0   0   0   0   0  24   0   0   0   0   0   0   0   0   0   0   0   0   0   0   0  27   0   0   0   0   0   0   0   0   0   0   0   0   0   0   0   0   0   0   0   0   0   0   0   0   0   0   0   0   0   0  
25   0   0  30   0   0  30   0   0   0  25   0   0   0   0   0   0   0  30   0   0   0   0   0   0   0   0   0   0   0   0   0   0   0  21   0   0   0   0   0   0   0   0   0   0   0   0   0   0   0   0   0   0   0   0   0   0   0   0   0   0   0   0   0  
 0  22  21   0   0   0   0  29   0   0   0  29   0   0   0   0   0   0   0  21   0   0   0   0   0   0   0   0   0   0   0   0   0   0   0  21   0   0   0   0   0   0   0   0   0   0   0   0   0   0   0   0   0   0   0   0   0   0   0   0   0   0   0   0  
24   0   0   0   0  29  26   0   0   0   0   0  30   0   0   0   0   0   0   0  22   0   0   0   0   0   0   0   0   0   0   0   0   0   0   0  29   0   0   0   0   0   0   0   0   0   0   0   0   0   0   0   0   0   0   0   0   0   0   0   0   0   0   0  
 0  27   0   0  29   0   0  28   0   0   0   0   0  25   0   0   0   0   0   0   0  28   0   0   0   0   0   0   0   0   0   0   0   0   0   0   0  30   0   0   0   0   0   0   0   0   0   0   0   0   0   0   0   0   0   0   0   0   0   0   0   0   0   0  
 0   0  22   0  29   0   0  24   0   0   0   0   0   0  23   0   0   0   0   0   0   0  29   0   0   0   0   0   0   0   0   0   0   0   0   0   0   0  23   0   0   0   0   0   0   0   0   0   0   0   0   0   0   0   0   0   0   0   0   0   0   0   0   0  
 0   0   0  23   0  28  24   0   0   0   0   0   0   0   0  24   0   0   0   0   0   0   0  21   0   0   0   0   0   0   0   0   0   0   0   0   0   0   0  26   0   0   0   0   0   0   0   0   0   0   0   0   0   0   0   0   0   0   0   0   0   0   0   0  
26   0   0   0   0   0   0   0   0  21  24   0  24   0   0   0   0   0   0   0   0   0   0   0  22   0   0   0   0   0   0   0   0   0   0   0   0   0   0   0  26   0   0   0   0   0   0   0   0   0   0   0   0   0   0   0   0   0   0   0   0   0   0   0  
 0  29   0   0   0   0   0   0  30   0   0  28   0  26   0   0   0   0   0   0   0   0   0   0   0  30   0   0   0   0   0   0   0   0   0   0   0   0   0   0   0  24   0   0   0   0   0   0   0   0   0   0   0   0   0   0   0   0   0   0   0   0   0   0  
 0   0  24   0   0   0   0   0  21   0   0  21   0   0  23   0   0   0   0   0   0   0   0   0   0   0  28   0   0   0   0   0   0   0   0   0   0   0   0   0   0   0  28   0   0   0   0   0   0   0   0   0   0   0   0   0   0   0   0   0   0   0   0   0  
 0   0   0  24   0   0   0   0   0  21  22   0   0   0   0  26   0   0   0   0   0   0   0   0   0   0   0  30   0   0   0   0   0   0   0   0   0   0   0   0   0   0   0  24   0   0   0   0   0   0   0   0   0   0   0   0   0   0   0   0   0   0   0   0  
 0   0   0   0  23   0   0   0  22   0   0   0   0  29  25   0   0   0   0   0   0   0   0   0   0   0   0   0  24   0   0   0   0   0   0   0   0   0   0   0   0   0   0   0  24   0   0   0   0   0   0   0   0   0   0   0   0   0   0   0   0   0   0   0  
 0   0   0   0   0  28   0   0   0  24   0   0  24   0   0  26   0   0   0   0   0   0   0   0   0   0   0   0   0  21   0   0   0   0   0   0   0   0   0   0   0   0   0   0   0  28   0   0   0   0   0   0   0   0   0   0   0   0   0   0   0   0   0   0  
 0   0   0   0   0   0  28   0   0   0  28   0  23   0   0  24   0   0   0   0   0   0   0   0   0   0   0   0   0   0  29   0   0   0   0   0   0   0   0   0   0   0   0   0   0   0  22   0   0   0   0   0   0   0   0   0   0   0   0   0   0   0   0   0  
 0   0   0   0   0   0   0  27   0   0   0  30   0  24  24   0   0   0   0   0   0   0   0   0   0   0   0   0   0   0   0  21   0   0   0   0   0   0   0   0   0   0   0   0   0   0   0  22   0   0   0   0   0   0   0   0   0   0   0   0   0   0   0   0  
22   0   0   0   0   0   0   0   0   0   0   0   0   0   0   0   0  28  29   0  30   0   0   0  21   0   0   0   0   0   0   0   0   0   0   0   0   0   0   0   0   0   0   0   0   0   0   0  22   0   0   0   0   0   0   0   0   0   0   0   0   0   0   0  
 0  25   0   0   0   0   0   0   0   0   0   0   0   0   0   0  30   0   0  26   0  23   0   0   0  21   0   0   0   0   0   0   0   0   0   0   0   0   0   0   0   0   0   0   0   0   0   0   0  27   0   0   0   0   0   0   0   0   0   0   0   0   0   0  
 0   0  25   0   0   0   0   0   0   0   0   0   0   0   0   0  23   0   0  21   0   0  25   0   0   0  26   0   0   0   0   0   0   0   0   0   0   0   0   0   0   0   0   0   0   0   0   0   0   0  28   0   0   0   0   0   0   0   0   0   0   0   0   0  
 0   0   0  30   0   0   0   0   0   0   0   0   0   0   0   0   0  26  24   0   0   0   0  28   0   0   0  25   0   0   0   0   0   0   0   0   0   0   0   0   0   0   0   0   0   0   0   0   0   0   0  27   0   0   0   0   0   0   0   0   0   0   0   0  
 0   0   0   0  29   0   0   0   0   0   0   0   0   0   0   0  22   0   0   0   0  26  29   0   0   0   0   0  24   0   0   0   0   0   0   0   0   0   0   0   0   0   0   0   0   0   0   0   0   0   0   0  22   0   0   0   0   0   0   0   0   0   0   0  
 0   0   0   0   0  28   0   0   0   0   0   0   0   0   0   0   0  21   0   0  28   0   0  28   0   0   0   0   0  29   0   0   0   0   0   0   0   0   0   0   0   0   0   0   0   0   0   0   0   0   0   0   0  29   0   0   0   0   0   0   0   0   0   0  
 0   0   0   0   0   0  24   0   0   0   0   0   0   0   0   0   0   0  22   0  27   0   0  21   0   0   0   0   0   0  26   0   0   0   0   0   0   0   0   0   0   0   0   0   0   0   0   0   0   0   0   0   0   0  25   0   0   0   0   0   0   0   0   0  
 0   0   0   0   0   0   0  23   0   0   0   0   0   0   0   0   0   0   0  27   0  26  26   0   0   0   0   0   0   0   0  21   0   0   0   0   0   0   0   0   0   0   0   0   0   0   0   0   0   0   0   0   0   0   0  30   0   0   0   0   0   0   0   0  
 0   0   0   0   0   0   0   0  23   0   0   0   0   0   0   0  27   0   0   0   0   0   0   0   0  21  24   0  21   0   0   0   0   0   0   0   0   0   0   0   0   0   0   0   0   0   0   0   0   0   0   0   0   0   0   0  22   0   0   0   0   0   0   0  
 0   0   0   0   0   0   0   0   0  23   0   0   0   0   0   0   0  30   0   0   0   0   0   0  27   0   0  24   0  30   0   0   0   0   0   0   0   0   0   0   0   0   0   0   0   0   0   0   0   0   0   0   0   0   0   0   0  21   0   0   0   0   0   0  
 0   0   0   0   0   0   0   0   0   0  26   0   0   0   0   0   0   0  29   0   0   0   0   0  28   0   0  26   0   0  22   0   0   0   0   0   0   0   0   0   0   0   0   0   0   0   0   0   0   0   0   0   0   0   0   0   0   0  26   0   0   0   0   0  
 0   0   0   0   0   0   0   0   0   0   0  29   0   0   0   0   0   0   0  23   0   0   0   0   0  24  23   0   0   0   0  25   0   0   0   0   0   0   0   0   0   0   0   0   0   0   0   0   0   0   0   0   0   0   0   0   0   0   0  27   0   0   0   0  
 0   0   0   0   0   0   0   0   0   0   0   0  30   0   0   0   0   0   0   0  22   0   0   0  29   0   0   0   0  27  28   0   0   0   0   0   0   0   0   0   0   0   0   0   0   0   0   0   0   0   0   0   0   0   0   0   0   0   0   0  24   0   0   0  
 0   0   0   0   0   0   0   0   0   0   0   0   0  29   0   0   0   0   0   0   0  27   0   0   0  29   0   0  21   0   0  21   0   0   0   0   0   0   0   0   0   0   0   0   0   0   0   0   0   0   0   0   0   0   0   0   0   0   0   0   0  21   0   0  
 0   0   0   0   0   0   0   0   0   0   0   0   0   0  29   0   0   0   0   0   0   0  21   0   0   0  24   0  25   0   0  30   0   0   0   0   0   0   0   0   0   0   0   0   0   0   0   0   0   0   0   0   0   0   0   0   0   0   0   0   0   0  30   0  
 0   0   0   0   0   0   0   0   0   0   0   0   0   0   0  23   0   0   0   0   0   0   0  24   0   0   0  22   0  22  27   0   0   0   0   0   0   0   0   0   0   0   0   0   0   0   0   0   0   0   0   0   0   0   0   0   0   0   0   0   0   0   0  30  
22   0   0   0   0   0   0   0   0   0   0   0   0   0   0   0   0   0   0   0   0   0   0   0   0   0   0   0   0   0   0   0   0  29  28   0  24   0   0   0  23   0   0   0   0   0   0   0  28   0   0   0   0   0   0   0   0   0   0   0   0   0   0   0  
 0  24   0   0   0   0   0   0   0   0   0   0   0   0   0   0   0   0   0   0   0   0   0   0   0   0   0   0   0   0   0   0  24   0   0  30   0  25   0   0   0  25   0   0   0   0   0   0   0  21   0   0   0   0   0   0   0   0   0   0   0   0   0   0  
 0   0  24   0   0   0   0   0   0   0   0   0   0   0   0   0   0   0   0   0   0   0   0   0   0   0   0   0   0   0   0   0  22   0   0  21   0   0  22   0   0   0  24   0   0   0   0   0   0   0  23   0   0   0   0   0   0   0   0   0   0   0   0   0  
 0   0   0  27   0   0   0   0   0   0   0   0   0   0   0   0   0   0   0   0   0   0   0   0   0   0   0   0   0   0   0   0   0  24  28   0   0   0   0  22   0   0   0  29   0   0   0   0   0   0   0  21   0   0   0   0   0   0   0   0   0   0   0   0  
 0   0   0   0  26   0   0   0   0   0   0   0   0   0   0   0   0   0   0   0   0   0   0   0   0   0   0   0   0   0   0   0  24   0   0   0   0  22  21   0   0   0   0   0  29   0   0   0   0   0   0   0  28   0   0   0   0   0   0   0   0   0   0   0  
 0   0   0   0   0  28   0   0   0   0   0   0   0   0   0   0   0   0   0   0   0   0   0   0   0   0   0   0   0   0   0   0   0  30   0   0  24   0   0  23   0   0   0   0   0  29   0   0   0   0   0   0   0  25   0   0   0   0   0   0   0   0   0   0  
 0   0   0   0   0   0  25   0   0   0   0   0   0   0   0   0   0   0   0   0   0   0   0   0   0   0   0   0   0   0   0   0   0   0  28   0  22   0   0  25   0   0   0   0   0   0  23   0   0   0   0   0   0   0  22   0   0   0   0   0   0   0   0   0  
 0   0   0   0   0   0   0  30   0   0   0   0   0   0   0   0   0   0   0   0   0   0   0   0   0   0   0   0   0   0   0   0   0   0   0  26   0  24  22   0   0   0   0   0   0   0   0  27   0   0   0   0   0   0   0  30   0   0   0   0   0   0   0   0  
 0   0   0   0   0   0   0   0  21   0   0   0   0   0   0   0   0   0   0   0   0   0   0   0   0   0   0   0   0   0   0   0  28   0   0   0   0   0   0   0   0  29  28   0  30   0   0   0   0   0   0   0   0   0   0   0  30   0   0   0   0   0   0   0  
 0   0   0   0   0   0   0   0   0  22   0   0   0   0   0   0   0   0   0   0   0   0   0   0   0   0   0   0   0   0   0   0   0  28   0   0   0   0   0   0  26   0   0  24   0  26   0   0   0   0   0   0   0   0   0   0   0  29   0   0   0   0   0   0  
 0   0   0   0   0   0   0   0   0   0  23   0   0   0   0   0   0   0   0   0   0   0   0   0   0   0   0   0   0   0   0   0   0   0  30   0   0   0   0   0  27   0   0  26   0   0  25   0   0   0   0   0   0   0   0   0   0   0  26   0   0   0   0   0  
 0   0   0   0   0   0   0   0   0   0   0  24   0   0   0   0   0   0   0   0   0   0   0   0   0   0   0   0   0   0   0   0   0   0   0  29   0   0   0   0   0  24  24   0   0   0   0  28   0   0   0   0   0   0   0   0   0   0   0  23   0   0   0   0  
 0   0   0   0   0   0   0   0   0   0   0   0  22   0   0   0   0   0   0   0   0   0   0   0   0   0   0   0   0   0   0   0   0   0   0   0  26   0   0   0  22   0   0   0   0  26  26   0   0   0   0   0   0   0   0   0   0   0   0   0  23   0   0   0  
 0   0   0   0   0   0   0   0   0   0   0   0   0  26   0   0   0   0   0   0   0   0   0   0   0   0   0   0   0   0   0   0   0   0   0   0   0  23   0   0   0  23   0   0  26   0   0  25   0   0   0   0   0   0   0   0   0   0   0   0   0  29   0   0  
 0   0   0   0   0   0   0   0   0   0   0   0   0   0  21   0   0   0   0   0   0   0   0   0   0   0   0   0   0   0   0   0   0   0   0   0   0   0  22   0   0   0  21   0  26   0   0  21   0   0   0   0   0   0   0   0   0   0   0   0   0   0  24   0  
 0   0   0   0   0   0   0   0   0   0   0   0   0   0   0  25   0   0   0   0   0   0   0   0   0   0   0   0   0   0   0   0   0   0   0   0   0   0   0  29   0   0   0  27   0  23  25   0   0   0   0   0   0   0   0   0   0   0   0   0   0   0   0  27  
 0   0   0   0   0   0   0   0   0   0   0   0   0   0   0   0  23   0   0   0   0   0   0   0   0   0   0   0   0   0   0   0  30   0   0   0   0   0   0   0   0   0   0   0   0   0   0   0   0  30  22   0  30   0   0   0  25   0   0   0   0   0   0   0  
 0   0   0   0   0   0   0   0   0   0   0   0   0   0   0   0   0  23   0   0   0   0   0   0   0   0   0   0   0   0   0   0   0  21   0   0   0   0   0   0   0   0   0   0   0   0   0   0  27   0   0  30   0  27   0   0   0  27   0   0   0   0   0   0  
 0   0   0   0   0   0   0   0   0   0   0   0   0   0   0   0   0   0  23   0   0   0   0   0   0   0   0   0   0   0   0   0   0   0  26   0   0   0   0   0   0   0   0   0   0   0   0   0  25   0   0  26   0   0  26   0   0   0  28   0   0   0   0   0  
 0   0   0   0   0   0   0   0   0   0   0   0   0   0   0   0   0   0   0  27   0   0   0   0   0   0   0   0   0   0   0   0   0   0   0  26   0   0   0   0   0   0   0   0   0   0   0   0   0  24  26   0   0   0   0  21   0   0   0  22   0   0   0   0  
 0   0   0   0   0   0   0   0   0   0   0   0   0   0   0   0   0   0   0   0  26   0   0   0   0   0   0   0   0   0   0   0   0   0   0   0  29   0   0   0   0   0   0   0   0   0   0   0  22   0   0   0   0  25  23   0   0   0   0   0  28   0   0   0  
 0   0   0   0   0   0   0   0   0   0   0   0   0   0   0   0   0   0   0   0   0  23   0   0   0   0   0   0   0   0   0   0   0   0   0   0   0  21   0   0   0   0   0   0   0   0   0   0   0  21   0   0  30   0   0  30   0   0   0   0   0  29   0   0  
 0   0   0   0   0   0   0   0   0   0   0   0   0   0   0   0   0   0   0   0   0   0  28   0   0   0   0   0   0   0   0   0   0   0   0   0   0   0  22   0   0   0   0   0   0   0   0   0   0   0  30   0  25   0   0  29   0   0   0   0   0   0  21   0  
 0   0   0   0   0   0   0   0   0   0   0   0   0   0   0   0   0   0   0   0   0   0   0  23   0   0   0   0   0   0   0   0   0   0   0   0   0   0   0  24   0   0   0   0   0   0   0   0   0   0   0  23   0  28  26   0   0   0   0   0   0   0   0  23  
 0   0   0   0   0   0   0   0   0   0   0   0   0   0   0   0   0   0   0   0   0   0   0   0  25   0   0   0   0   0   0   0   0   0   0   0   0   0   0   0  27   0   0   0   0   0   0   0  24   0   0   0   0   0   0   0   0  27  25   0  21   0   0   0  
 0   0   0   0   0   0   0   0   0   0   0   0   0   0   0   0   0   0   0   0   0   0   0   0   0  30   0   0   0   0   0   0   0   0   0   0   0   0   0   0   0  29   0   0   0   0   0   0   0  29   0   0   0   0   0   0  29   0   0  26   0  27   0   0  
 0   0   0   0   0   0   0   0   0   0   0   0   0   0   0   0   0   0   0   0   0   0   0   0   0   0  22   0   0   0   0   0   0   0   0   0   0   0   0   0   0   0  28   0   0   0   0   0   0   0  28   0   0   0   0   0  25   0   0  29   0   0  22   0  
 0   0   0   0   0   0   0   0   0   0   0   0   0   0   0   0   0   0   0   0   0   0   0   0   0   0   0  28   0   0   0   0   0   0   0   0   0   0   0   0   0   0   0  22   0   0   0   0   0   0   0  27   0   0   0   0   0  30  21   0   0   0   0  30  
 0   0   0   0   0   0   0   0   0   0   0   0   0   0   0   0   0   0   0   0   0   0   0   0   0   0   0   0  21   0   0   0   0   0   0   0   0   0   0   0   0   0   0   0  26   0   0   0   0   0   0   0  24   0   0   0  23   0   0   0   0  28  26   0  
 0   0   0   0   0   0   0   0   0   0   0   0   0   0   0   0   0   0   0   0   0   0   0   0   0   0   0   0   0  23   0   0   0   0   0   0   0   0   0   0   0   0   0   0   0  21   0   0   0   0   0   0   0  26   0   0   0  24   0   0  28   0   0  21  
 0   0   0   0   0   0   0   0   0   0   0   0   0   0   0   0   0   0   0   0   0   0   0   0   0   0   0   0   0   0  26   0   0   0   0   0   0   0   0   0   0   0   0   0   0   0  27   0   0   0   0   0   0   0  28   0   0   0  25   0  23   0   0  22  
 0   0   0   0   0   0   0   0   0   0   0   0   0   0   0   0   0   0   0   0   0   0   0   0   0   0   0   0   0   0   0  24   0   0   0   0   0   0   0   0   0   0   0   0   0   0   0  24   0   0   0   0   0   0   0  24   0   0   0  23   0  26  27   0  
